w = 15;
n = 25;
measures = [|4, 26,
|7, 10,
|4, 12,
|5, 9,
|4, 11,
|4, 8,
|4, 8,
|5, 5,
|3, 8,
|2, 11,
|2, 11,
|5, 4,
|2, 10,
|2, 7,
|2, 6,
|4, 3,
|2, 6,
|4, 2,
|3, 2,
|1, 6,
|2, 3,
|2, 3,
|1, 4,
|3, 1,
|1, 3,
|];
initial_x = [0, 4, 11, 0, 5, 9, 0, 4, 9, 12, 0, 2, 7, 9, 11, 0, 4, 6, 10, 13, 0, 2, 4, 5, 8];
initial_y = [0, 0, 0, 26, 26, 26, 37, 37, 37, 37, 48, 48, 48, 48, 48, 59, 59, 59, 59, 59, 65, 65, 65, 65, 65];